solution status: optimal solution found
objective value:                     187729.762581646
d11(0,0)                                            1 	(obj:0)
d11(1,1)                                            1 	(obj:0)
d11(1,2)                                            1 	(obj:0)
d11(2,3)                                            1 	(obj:0)
d11(2,5)                                            1 	(obj:0)
d11(3,7)                                            1 	(obj:0)
d11(3,8)                                            1 	(obj:0)
d11(3,9)                                            1 	(obj:0)
d11(3,10)                                           1 	(obj:0)
d11(3,11)                                           1 	(obj:0)
d11(3,13)                                           1 	(obj:0)
d11(4,15)                                           1 	(obj:0)
d11(4,16)                                           1 	(obj:0)
d11(4,17)                                           1 	(obj:0)
d11(4,18)                                           1 	(obj:0)
d11(4,19)                                           1 	(obj:0)
d11(4,20)                                           1 	(obj:0)
d11(4,21)                                           1 	(obj:0)
d11(4,22)                                           1 	(obj:0)
d11(4,23)                                           1 	(obj:0)
d11(4,25)                                           1 	(obj:0)
d11(4,26)                                           1 	(obj:0)
d11(4,27)                                           1 	(obj:0)
d11(4,28)                                           1 	(obj:0)
d11(4,29)                                           1 	(obj:0)
d21(3,7)                                            1 	(obj:0)
d21(4,15)                                           1 	(obj:0)
d21(4,16)                                           1 	(obj:0)
d21(4,17)                                           1 	(obj:0)
d21(4,19)                                           1 	(obj:0)
d21(4,21)                                           1 	(obj:0)
d21(4,23)                                           1 	(obj:0)
STE(1,1)                             4871.24994888885 	(obj:0)
STE(0,0)                                         9450 	(obj:0)
STE(1,2)                             6529.49984777764 	(obj:0)
STE(2,3)                             2457.00004999825 	(obj:0)
STE(2,4)                             4115.24994888885 	(obj:0)
STE(2,5)                             4115.24994888702 	(obj:0)
STE(2,6)                             5773.49984777764 	(obj:0)
STE(3,7)                             42.7501511094329 	(obj:0)
STE(3,8)                             1701.00004999825 	(obj:0)
STE(3,9)                             1701.00005000003 	(obj:0)
STE(3,10)                            3359.24994888885 	(obj:0)
STE(3,11)                            1701.00004999823 	(obj:0)
STE(3,12)                            3359.24994888702 	(obj:0)
STE(3,13)                            3359.24994888882 	(obj:0)
STE(3,14)                            5017.49984777764 	(obj:0)
STE(4,15)                           -2371.49974777938 	(obj:0)
STE(4,16)                           -713.249848890567 	(obj:0)
STE(4,17)                           -713.249848890567 	(obj:0)
STE(4,18)                             945.00004999825 	(obj:0)
STE(4,19)                           -713.249848888786 	(obj:0)
STE(4,20)                            945.000050000031 	(obj:0)
STE(4,21)                            945.000050000031 	(obj:0)
STE(4,22)                            2603.24994888885 	(obj:0)
STE(4,23)                           -713.249848890587 	(obj:0)
STE(4,24)                            945.000049998231 	(obj:0)
STE(4,25)                            945.000049998204 	(obj:0)
STE(4,26)                            2603.24994888702 	(obj:0)
STE(4,27)                                   945.00005 	(obj:0)
STE(4,28)                            2603.24994888882 	(obj:0)
STE(4,29)                            2603.24994888882 	(obj:0)
STE(4,30)                            4261.49984777764 	(obj:0)
y1(3,11)                             1492.42490899991 	(obj:0)
y1(3,13)                             1492.42490899994 	(obj:0)
y1(4,15)                             1492.42490899994 	(obj:0)
y1(4,17)                             1492.42490899994 	(obj:0)
y1(4,19)                             1492.42490899994 	(obj:0)
y1(4,21)                             1492.42490899994 	(obj:0)
y1(4,23)                             1492.42490899994 	(obj:0)
y1(4,25)                             1492.42490899994 	(obj:0)
y1(4,27)                             1492.42490899994 	(obj:0)
y1(4,29)                             1492.42490899994 	(obj:0)
AVE(1)                               3265.91696791192 	(obj:0)
WB(2)                                3332.74178563731 	(obj:0)
AVE(2)                               3332.74178563731 	(obj:0)
WB(3)                                3444.11697932125 	(obj:0)
AVE(3)                               3444.11697932125 	(obj:0)
WB(4)                                3399.56511093564 	(obj:0)
AVE(4)                               3399.56511093778 	(obj:0)
WG(1)                                3265.91696791192 	(obj:10)
WG(4)                            2.13824060498452e-009 	(obj:10)
BG(1)                                2918.18179331265 	(obj:10)
BG(2)                                 4196.2924989812 	(obj:10)
BG(3)                                4196.29249898007 	(obj:10)
BG(4)                                4196.29249897745 	(obj:10)
y1(1,1)                              3440.47504600004 	(obj:0)
y1(1,2)                              1948.05013700013 	(obj:0)
y1(2,3)                              1492.42490900154 	(obj:0)
y1(2,5)                              1492.42490900155 	(obj:0)
y1(3,7)                              1492.42490899994 	(obj:0)
y1(3,9)                              1492.42490899994 	(obj:0)
